35 40 38 2 4 76 89 92 1 43 78 96 39 5 57 88 67 12 28 21 95 73 81 66 56 37 61 36 52 80 7 47 14 50 59 6 83 64 87 30 75 53 16 42 10 0 22 86 60 84 65 55 3 49 77 98 63 69 33 19 18 82 9 26 70 34 72 15 45 24 62 93 79 27 51 31 32 97 71 54 74 17 99 68 48 90 85 20 58 25 94 44 46 13 29 8 41 91 23 11